letting initialStacks = [18, 4, 14, 42, 21, 17, 36, 32, 20, 34, 49, 35, 24, 46, 23, 48, 22, 28, 50, 40, 11, 2, 15, 45, 5, 39, 26, 31, 38, 30, 1, 16, 10, 33, 6, 51, 41, 3, 8, 9, 25, 47, 29, 7, 44, 12, 27, 13, 37, 43, 19]
